\ENCODING=ISO-8859-1
\Problem name: lp1.lp

Maximize
 obj: x5
Subject To
 c1:  x3 + x4 + x6  = 1
 c2:  x2 + x4 + x7  = 0
 c3:  x1 + x2 + x3 + x4 + x8  = 1
 c4:  x1 + x2 + x3 + x4  = 1
 c5:  - x1 + x5 <= 0
 c6:  - x2 + x5 <= 0
 c7:  - x3 + x5 <= 0
 c8:  - x4 + x5 <= 0
 c9:  x5 - x6 <= 0
 c10: x5 - x7 <= 0
 c11: x5 - x8 <= 0
Bounds
      x1 Free
      x2 Free
      x3 Free
      x4 Free
      x5 Free
      x6 Free
      x7 Free
      x8 Free
End
